array [1..3] of int: X_INTRODUCED_49_ = [0,2,1];
array [1..3] of int: X_INTRODUCED_53_ = [2,0,2];
array [1..3] of int: X_INTRODUCED_55_ = [1,2,0];
array [1..9] of int: X_INTRODUCED_59_ = [1,-1,-1,-1,-1,-1,-10,-10,-10];
var 1..3: X_INTRODUCED_0_;
var 1..3: X_INTRODUCED_1_;
var 1..3: X_INTRODUCED_2_;
var 1..3: X_INTRODUCED_3_;
var 1..3: X_INTRODUCED_4_;
var bool: X_INTRODUCED_6_ ::var_is_introduced :: is_defined_var;
var 0..1: X_INTRODUCED_7_ ::var_is_introduced :: is_defined_var;
var bool: X_INTRODUCED_8_ ::var_is_introduced :: is_defined_var;
var 0..1: X_INTRODUCED_9_ ::var_is_introduced :: is_defined_var;
var bool: X_INTRODUCED_10_ ::var_is_introduced :: is_defined_var;
var 0..1: X_INTRODUCED_11_ ::var_is_introduced :: is_defined_var;
var bool: X_INTRODUCED_12_ ::var_is_introduced :: is_defined_var;
var 0..1: X_INTRODUCED_13_ ::var_is_introduced :: is_defined_var;
var bool: X_INTRODUCED_14_ ::var_is_introduced :: is_defined_var;
var 0..1: X_INTRODUCED_15_ ::var_is_introduced :: is_defined_var;
var -4..1: X_INTRODUCED_17_ ::var_is_introduced :: is_defined_var;
var 0..1: X_INTRODUCED_18_ ::var_is_introduced :: is_defined_var;
var bool: X_INTRODUCED_21_ ::var_is_introduced :: is_defined_var;
var 0..1: X_INTRODUCED_22_ ::var_is_introduced :: is_defined_var;
var bool: X_INTRODUCED_23_ ::var_is_introduced :: is_defined_var;
var 0..1: X_INTRODUCED_24_ ::var_is_introduced :: is_defined_var;
var bool: X_INTRODUCED_25_ ::var_is_introduced :: is_defined_var;
var 0..1: X_INTRODUCED_26_ ::var_is_introduced :: is_defined_var;
var bool: X_INTRODUCED_27_ ::var_is_introduced :: is_defined_var;
var 0..1: X_INTRODUCED_28_ ::var_is_introduced :: is_defined_var;
var bool: X_INTRODUCED_29_ ::var_is_introduced :: is_defined_var;
var 0..1: X_INTRODUCED_30_ ::var_is_introduced :: is_defined_var;
var -2..3: X_INTRODUCED_32_ ::var_is_introduced :: is_defined_var;
var 0..3: X_INTRODUCED_33_ ::var_is_introduced :: is_defined_var;
var bool: X_INTRODUCED_35_ ::var_is_introduced :: is_defined_var;
var 0..1: X_INTRODUCED_36_ ::var_is_introduced :: is_defined_var;
var bool: X_INTRODUCED_37_ ::var_is_introduced :: is_defined_var;
var 0..1: X_INTRODUCED_38_ ::var_is_introduced :: is_defined_var;
var bool: X_INTRODUCED_39_ ::var_is_introduced :: is_defined_var;
var 0..1: X_INTRODUCED_40_ ::var_is_introduced :: is_defined_var;
var bool: X_INTRODUCED_41_ ::var_is_introduced :: is_defined_var;
var 0..1: X_INTRODUCED_42_ ::var_is_introduced :: is_defined_var;
var bool: X_INTRODUCED_43_ ::var_is_introduced :: is_defined_var;
var 0..1: X_INTRODUCED_44_ ::var_is_introduced :: is_defined_var;
var -4..1: X_INTRODUCED_46_ ::var_is_introduced :: is_defined_var;
var 0..1: X_INTRODUCED_47_ ::var_is_introduced :: is_defined_var;
var 0..2: X_INTRODUCED_50_ ::var_is_introduced :: is_defined_var;
var 0..2: X_INTRODUCED_51_ ::var_is_introduced :: is_defined_var;
var 0..2: X_INTRODUCED_52_ ::var_is_introduced :: is_defined_var;
var 0..2: X_INTRODUCED_54_ ::var_is_introduced :: is_defined_var;
var 0..2: X_INTRODUCED_56_ ::var_is_introduced :: is_defined_var;
var 0..60: total_cost:: output_var:: is_defined_var;
array [1..5] of var int: target_pos:: output_array([1..5]) = [X_INTRODUCED_0_,X_INTRODUCED_1_,X_INTRODUCED_2_,X_INTRODUCED_3_,X_INTRODUCED_4_];
constraint int_max(0,X_INTRODUCED_17_,X_INTRODUCED_18_):: defines_var(X_INTRODUCED_18_);
constraint int_max(0,X_INTRODUCED_32_,X_INTRODUCED_33_):: defines_var(X_INTRODUCED_33_);
constraint int_max(0,X_INTRODUCED_46_,X_INTRODUCED_47_):: defines_var(X_INTRODUCED_47_);
constraint array_int_element(X_INTRODUCED_0_,X_INTRODUCED_49_,X_INTRODUCED_50_):: defines_var(X_INTRODUCED_50_);
constraint array_int_element(X_INTRODUCED_1_,X_INTRODUCED_49_,X_INTRODUCED_51_):: defines_var(X_INTRODUCED_51_);
constraint array_int_element(X_INTRODUCED_2_,X_INTRODUCED_49_,X_INTRODUCED_52_):: defines_var(X_INTRODUCED_52_);
constraint array_int_element(X_INTRODUCED_3_,X_INTRODUCED_53_,X_INTRODUCED_54_):: defines_var(X_INTRODUCED_54_);
constraint array_int_element(X_INTRODUCED_4_,X_INTRODUCED_55_,X_INTRODUCED_56_):: defines_var(X_INTRODUCED_56_);
constraint int_lin_eq(X_INTRODUCED_59_,[total_cost,X_INTRODUCED_50_,X_INTRODUCED_51_,X_INTRODUCED_52_,X_INTRODUCED_54_,X_INTRODUCED_56_,X_INTRODUCED_18_,X_INTRODUCED_33_,X_INTRODUCED_47_],0):: defines_var(total_cost);
constraint int_eq_reif(X_INTRODUCED_0_,1,X_INTRODUCED_6_):: defines_var(X_INTRODUCED_6_);
constraint bool2int(X_INTRODUCED_6_,X_INTRODUCED_7_):: defines_var(X_INTRODUCED_7_);
constraint int_eq_reif(X_INTRODUCED_1_,1,X_INTRODUCED_8_):: defines_var(X_INTRODUCED_8_);
constraint bool2int(X_INTRODUCED_8_,X_INTRODUCED_9_):: defines_var(X_INTRODUCED_9_);
constraint int_eq_reif(X_INTRODUCED_2_,1,X_INTRODUCED_10_):: defines_var(X_INTRODUCED_10_);
constraint bool2int(X_INTRODUCED_10_,X_INTRODUCED_11_):: defines_var(X_INTRODUCED_11_);
constraint int_eq_reif(X_INTRODUCED_3_,1,X_INTRODUCED_12_):: defines_var(X_INTRODUCED_12_);
constraint bool2int(X_INTRODUCED_12_,X_INTRODUCED_13_):: defines_var(X_INTRODUCED_13_);
constraint int_eq_reif(X_INTRODUCED_4_,1,X_INTRODUCED_14_):: defines_var(X_INTRODUCED_14_);
constraint bool2int(X_INTRODUCED_14_,X_INTRODUCED_15_):: defines_var(X_INTRODUCED_15_);
constraint int_lin_eq([-1,-1,-1,-1,-1,-1],[X_INTRODUCED_7_,X_INTRODUCED_9_,X_INTRODUCED_11_,X_INTRODUCED_13_,X_INTRODUCED_15_,X_INTRODUCED_17_],-1):: defines_var(X_INTRODUCED_17_);
constraint int_eq_reif(X_INTRODUCED_0_,2,X_INTRODUCED_21_):: defines_var(X_INTRODUCED_21_);
constraint bool2int(X_INTRODUCED_21_,X_INTRODUCED_22_):: defines_var(X_INTRODUCED_22_);
constraint int_eq_reif(X_INTRODUCED_1_,2,X_INTRODUCED_23_):: defines_var(X_INTRODUCED_23_);
constraint bool2int(X_INTRODUCED_23_,X_INTRODUCED_24_):: defines_var(X_INTRODUCED_24_);
constraint int_eq_reif(X_INTRODUCED_2_,2,X_INTRODUCED_25_):: defines_var(X_INTRODUCED_25_);
constraint bool2int(X_INTRODUCED_25_,X_INTRODUCED_26_):: defines_var(X_INTRODUCED_26_);
constraint int_eq_reif(X_INTRODUCED_3_,2,X_INTRODUCED_27_):: defines_var(X_INTRODUCED_27_);
constraint bool2int(X_INTRODUCED_27_,X_INTRODUCED_28_):: defines_var(X_INTRODUCED_28_);
constraint int_eq_reif(X_INTRODUCED_4_,2,X_INTRODUCED_29_):: defines_var(X_INTRODUCED_29_);
constraint bool2int(X_INTRODUCED_29_,X_INTRODUCED_30_):: defines_var(X_INTRODUCED_30_);
constraint int_lin_eq([-1,-1,-1,-1,-1,-1],[X_INTRODUCED_22_,X_INTRODUCED_24_,X_INTRODUCED_26_,X_INTRODUCED_28_,X_INTRODUCED_30_,X_INTRODUCED_32_],-3):: defines_var(X_INTRODUCED_32_);
constraint int_eq_reif(X_INTRODUCED_0_,3,X_INTRODUCED_35_):: defines_var(X_INTRODUCED_35_);
constraint bool2int(X_INTRODUCED_35_,X_INTRODUCED_36_):: defines_var(X_INTRODUCED_36_);
constraint int_eq_reif(X_INTRODUCED_1_,3,X_INTRODUCED_37_):: defines_var(X_INTRODUCED_37_);
constraint bool2int(X_INTRODUCED_37_,X_INTRODUCED_38_):: defines_var(X_INTRODUCED_38_);
constraint int_eq_reif(X_INTRODUCED_2_,3,X_INTRODUCED_39_):: defines_var(X_INTRODUCED_39_);
constraint bool2int(X_INTRODUCED_39_,X_INTRODUCED_40_):: defines_var(X_INTRODUCED_40_);
constraint int_eq_reif(X_INTRODUCED_3_,3,X_INTRODUCED_41_):: defines_var(X_INTRODUCED_41_);
constraint bool2int(X_INTRODUCED_41_,X_INTRODUCED_42_):: defines_var(X_INTRODUCED_42_);
constraint int_eq_reif(X_INTRODUCED_4_,3,X_INTRODUCED_43_):: defines_var(X_INTRODUCED_43_);
constraint bool2int(X_INTRODUCED_43_,X_INTRODUCED_44_):: defines_var(X_INTRODUCED_44_);
constraint int_lin_eq([-1,-1,-1,-1,-1,-1],[X_INTRODUCED_36_,X_INTRODUCED_38_,X_INTRODUCED_40_,X_INTRODUCED_42_,X_INTRODUCED_44_,X_INTRODUCED_46_],-1):: defines_var(X_INTRODUCED_46_);
solve  minimize total_cost;
